
  12    4
  10   10   10   10

   0   0   0   0   0   1 2 
   3  10  10  10  10   2 4 3 
   9  10  10  10  10   3 7 6 5 
   5  10  10  10  10   2 9 5 
  10  10  10  10  10   2 11 8 
   5  10  10  10  10   2 11 8 
   8  10  10  10  10   1 9 
  10  10  10  10  10   1 10 
   6  10  10  10  10   1 10 
   7  10  10  10  10   1 12
   8  10  10  10  10   1 12
   0   0   0   0   0   0 
